p wcnf 8 30 117
117 1 2 0
117 1 3 0
117 1 4 0
117 1 5 0
117 1 7 0
117 1 8 0
117 2 3 0
117 2 5 0
117 2 6 0
117 2 7 0
117 3 4 0
117 3 5 0
117 3 6 0
117 3 8 0
117 4 5 0
117 4 7 0
117 4 8 0
117 5 6 0
117 5 7 0
117 5 8 0
117 6 7 0
117 7 8 0
3 -1 0
4 -2 0
3 -3 0
4 -4 0
2 -5 0
5 -6 0
3 -7 0
4 -8 0
